NAME : single
TYPE : ATSP
DIMENSION : 10
EDGE_WEIGHT_TYPE : EXPLICIT
EDGE_WEIGHT_FORMAT : FULL_MATRIX
EDGE_WEIGHT_SECTION
0 489 0 572 491 793 789 1109 989 898 
199959 0 539 438 529 552 1037 624 1081 817 
199932 539 0 572 491 793 789 1109 989 898 
199922 438 572 0 646 967 703 1064 742 652 
199934 529 491 646 0 1039 949 617 631 482 
199857 552 793 967 1039 0 806 972 1416 1326 
199875 1037 789 703 949 806 0 1471 674 768 
199830 624 1109 1064 617 972 1471 0 995 844 
199859 1081 989 742 631 1416 674 995 0 263 
199877 817 898 652 482 1326 768 844 263 0 
EOF