NAME : single
TYPE : ATSP
DIMENSION : 13
EDGE_WEIGHT_TYPE : EXPLICIT
EDGE_WEIGHT_FORMAT : FULL_MATRIX
EDGE_WEIGHT_SECTION
0 904 908 1035 911 625 744 156 137 1112 1078 220 138 
199923 0 36 141 13 1121 1168 957 902 206 172 1018 942 
199919 36 0 160 49 1140 1187 945 889 243 209 1038 929 
199897 141 160 0 136 1252 1299 1088 1032 261 208 1148 1072 
199921 13 49 136 0 1128 1175 964 908 204 170 1025 949 
199917 1121 1140 1252 1128 0 117 665 643 1329 1295 671 650 
199784 1168 1187 1299 1175 117 0 784 762 1376 1342 790 769 
199948 957 945 1088 964 665 784 0 58 1165 1130 125 36 
199953 902 889 1032 908 643 762 58 0 1109 1075 179 71 
199845 206 243 261 204 1329 1376 1165 1109 0 74 1225 1149 
199856 172 209 208 170 1295 1342 1130 1075 74 0 1191 1115 
199947 1018 1038 1148 1025 671 790 125 179 1225 1191 0 107 
199951 942 929 1072 949 650 769 36 71 1149 1115 107 0 
EOF